(set-logic QF_S)
(declare-fun var0 () String)
(assert (str.in.re var0 (re.++ (re.union (re.* (str.to.re "00")) (re.* (str.to.re "111"))) (re.++ (re.+ (re.* (str.to.re "222"))) (re.++ (re.* (re.+ (str.to.re "33"))) (re.++ (re.union (re.* (str.to.re "444")) (re.* (str.to.re "55"))) (re.++ (re.union (re.* (str.to.re "666")) (re.* (str.to.re "777"))) (re.++ (re.union (re.* (str.to.re "888")) (re.* (str.to.re "999"))) (re.++ (re.+ (re.+ (str.to.re "a"))) (re.++ (re.+ (re.+ (str.to.re "bb"))) (re.++ (re.union (re.+ (str.to.re "c")) (re.+ (str.to.re "dd"))) (re.+ (re.* (str.to.re "e"))))))))))))))
(assert (<= 326 (str.len var0)))
(check-sat)